NAME: tsp30_11
COMMENT: 30-tsp problem (Padberg/Rinaldi)
TYPE: TSP
DIMENSION: 30
EDGE_WEIGHT_TYPE : EUC_2D
NODE_COORD_SECTION
1.00 34.45 7.93
2.00 38.06 20.59
3.00 28.84 8.82
4.00 27.03 9.38
5.00 25.89 11.91
6.00 37.28 22.66
7.00 25.11 10.76
8.00 39.27 8.83
9.00 34.61 11.14
10.00 6.49 8.86
11.00 18.19 0.22
12.00 0.62 13.17
13.00 18.69 26.23
14.00 13.36 14.35
15.00 20.39 15.97
16.00 5.16 9.95
17.00 11.39 0.76
18.00 30.91 0.41
19.00 2.19 15.04
20.00 10.40 24.70
21.00 28.14 3.71
22.00 22.44 34.80
23.00 17.63 16.25
24.00 5.14 3.33
25.00 38.82 10.81
26.00 39.09 36.98
27.00 14.54 3.23
28.00 34.93 2.20
29.00 14.05 11.37
30.00 14.03 24.08
